48235.0
1913
1 2 3 4 5 6 7 8 10 13 17 18 19 20 21 23 24 26 28 29 30 31 33 35 37 38 39 40 42 43 45 46 49 51 52 53 54 55 56 57 59 61 62 63 64 66 67 68 69 70 71 72 73 75 76 77 78 80 81 82 83 84 85 86 88 89 91 92 94 96 97 98 99 